CMD:
./solvers/bin/cadical --plain --no-reduce -t 1600 ./data/cnfs//bc57sensorsp2/bc57sensorsp2.41.cnf

c --- [ banner ] -------------------------------------------------------------
c 
c CaDiCaL SAT Solver
c Copyright (c) 2016-2024
c A. Biere, M. Fleury, N. Froleyks, K. Fazekas, F. Pollitt, T. Faller
c JKU Linz, University of Freiburg, TU Wien
c 
c Version 2.1.3 5296d3d2a9bf48c154ab2acb5e44625776d821bf
c g++ (Gentoo 12.3.1_p20230526 p2) 12.3.1 20230526 -Wall -Wextra -O3 -DNDEBUG
c Sat Aug 9 07:26:21 PDT 2025 Linux cedar2.int.cedar.computecanada.ca 5.14.0-362.24.2.el9_3.x86_64 x86_64
c 
c --- [ limit ] --------------------------------------------------------------
c 
c setting time limit to 1600 seconds real time (due to '-t 1600')
c 
c --- [ parsing input ] ------------------------------------------------------
c 
c reading DIMACS file from './data/cnfs//bc57sensorsp2/bc57sensorsp2.41.cnf'
c opening file to read './data/cnfs//bc57sensorsp2/bc57sensorsp2.41.cnf'
c found 'p cnf 83847 236818' header
c parsed 236818 clauses in 0.04 seconds process time
c 
c --- [ options ] ------------------------------------------------------------
c 
c   --compact=false                (different from default 'true')
c   --decompose=false              (different from default 'true')
c   --deduplicate=false            (different from default 'true')
c   --elim=false                   (different from default 'true')
c   --probe=false                  (different from default 'true')
c   --reduce=false                 (different from default 'true')
c   --subsume=false                (different from default 'true')
c   --ternary=false                (different from default 'true')
c   --transred=false               (different from default 'true')
c   --vivify=false                 (different from default 'true')
c 
c --- [ solving ] ------------------------------------------------------------
c 
c time measured in process time since initialization
c 
c  seconds  reductions  redundant  irredundant
c         MB    restarts       trail       variables
c          level   conflicts       glue         remaining
c 
c *  0.04 40  0 0   0    0    0  0% 0 223478 56102 67%
c {  0.06 41  0 0   0    0    0  0% 0 223478 56102 67%
c i  0.07 41 130 0   3   59   56 52% 2 223478 56096 67%
c i  0.07 41 128 0   3   60   56 52% 2 223478 56090 67%
c i  0.07 41 126 0   3   61   56 52% 1 223478 56079 67%
c i  0.07 41 125 0   3   62   56 52% 1 223478 56074 67%
c i  0.07 41 122 0   3   64   57 52% 1 223478 56067 67%
c i  0.07 41 120 0   3   65   57 52% 1 223478 56058 67%
c i  0.07 41 119 0   3   66   57 52% 1 223478 56052 67%
c i  0.07 41 115 0   3   69   59 52% 1 223478 56047 67%
c i  0.07 41 113 0   3   70   59 52% 1 223478 56040 67%
c i  0.07 41 112 0   3   71   59 52% 1 223478 56031 67%
c i  0.07 41 111 0   3   72   59 52% 1 223478 56025 67%
c i  0.07 41 106 0   3   76   62 52% 1 223478 56020 67%
c i  0.08 41 78 0   3  118  103 56% 1 223478 56009 67%
c i  0.08 41 77 0   3  120  104 56% 1 223478 55942 67%
c i  0.08 41 76 0   3  121  104 56% 1 223478 55683 66%
c i  0.08 41 76 0   3  122  104 56% 1 223478 55604 66%
c i  0.10 41 54 0  16  203  180 55% 2 223478 55594 66%
c i  0.10 41 54 0  17  204  180 55% 2 223478 55584 66%
c 
c  seconds  reductions  redundant  irredundant
c         MB    restarts       trail       variables
c          level   conflicts       glue         remaining
c 
c i  0.10 41 54 0  17  205  180 55% 2 223478 55573 66%
c i  0.10 41 53 0  17  206  180 55% 2 223478 55562 66%
c i  0.10 41 53 0  18  207  180 54% 2 223478 55551 66%
c i  0.10 41 53 0  19  211  183 55% 2 223478 55545 66%
c i  0.10 41 53 0  19  212  183 55% 2 223478 55532 66%
c i  0.10 41 52 0  20  214  184 54% 2 223478 55461 66%
c i  0.10 41 52 0  20  215  184 54% 2 223478 55407 66%
c i  0.13 41 47 0  30  259  220 54% 2 223478 52987 63%
c i  0.13 41 46 0  33  268  228 54% 2 223478 52610 63%
c i  0.14 41 46 0  36  280  239 54% 2 223478 52604 63%
c i  0.14 41 46 0  37  281  239 54% 2 223478 52601 63%
c i  0.14 41 46 0  37  282  239 54% 2 223478 52595 63%
c i  0.14 41 45 0  37  283  239 54% 2 223478 52591 63%
c i  0.16 41 41 0  52  349  302 54% 2 223478 52567 63%
c i  0.16 41 40 0  53  351  303 54% 2 223478 52513 63%
c i  0.17 41 39 0  58  373  322 54% 2 223478 52470 63%
c i  0.17 41 38 0  58  375  323 54% 2 223478 52377 62%
c i  0.18 41 37 0  61  400  346 54% 2 223478 52303 62%
c i  0.18 41 37 0  61  401  346 54% 2 223478 52166 62%
c i  0.18 41 37 0  61  410  352 55% 2 223478 52159 62%
c 
c  seconds  reductions  redundant  irredundant
c         MB    restarts       trail       variables
c          level   conflicts       glue         remaining
c 
c i  0.19 41 35 0  64  435  375 55% 2 223478 52116 62%
c i  0.19 41 34 0  68  452  388 54% 2 223478 52021 62%
c i  0.20 41 34 0  71  463  398 54% 2 223478 51978 62%
c i  0.20 41 33 0  73  471  405 54% 2 223478 51891 62%
c i  0.20 41 32 0  76  485  418 54% 2 223478 51839 62%
c }  0.21 41 31 0  82  521  446 54% 2 223478 42826 51%
c 0  0.21 41 31 0  82  521  446 54% 2 223478 42826 51%
c 
c --- [ result ] -------------------------------------------------------------
c 
s UNSATISFIABLE
c 
c --- [ run-time profiling ] -------------------------------------------------
c 
c process time taken by individual solving procedures
c (percentage relative to process time for solving)
c 
c         0.17   99.94% search
c         0.15   88.81% unstable
c         0.04   22.76% parse
c         0.02   11.08% lucky
c         0.00    0.00% simplify
c   =================================
c         0.17   81.25% solve
c 
c last line shows process time for solving
c (percentage relative to total process time)
c 
c --- [ statistics ] ---------------------------------------------------------
c 
c chronological:               262        50.29 %  of conflicts
c conflicts:                   521      3035.16    per second
c decisions:                  2644     15402.99    per second
c fixed:                     41021        48.92 %  of all variables
c learned:                     500        95.97 %  per conflict
c learned_lits:               4949       100.00 %  learned literals
c minimized:                     0         0.00 %  learned literals
c shrunken:                   1587        32.07 %  learned literals
c minishrunken:                415         8.39 %  learned literals
c otfs:                          6         1.15 %  of conflict
c propagations:            2250984        13.11 M  per second
c restarts:                     82         6.35    interval
c subsumed:                      9         0.00 %  of all clauses
c strengthened:                  6         0.00 %  of all clauses
c 
c seconds are measured in process time for solving
c 
c --- [ resources ] ----------------------------------------------------------
c 
c total process time since initialization:         0.21    seconds
c total real time since initialization:            0.22    seconds
c maximum resident set size of process:           39.00    MB
c 
c --- [ shutting down ] ------------------------------------------------------
c 
c exit 20
